words_hard_train/8377.qaiger
aag 161 16 0 1 145
2
4
8
12
16
20
24
28
32
52
62
74
96
118
140
162
323
6 3 5
10 6 9
14 10 13
18 14 17
22 18 21
26 22 24
30 26 29
34 30 32
36 31 33
38 35 37
40 2 25
42 28 2
44 29 3
46 45 24
48 43 46
50 41 49
54 50 53
56 51 52
58 55 57
60 58 28
64 60 62
66 65 57
68 47 4
70 46 5
72 69 71
76 72 75
78 73 74
80 77 79
82 67 80
84 83 79
86 44 5
88 87 24
90 89 9
92 88 8
94 91 93
98 95 97
100 94 96
102 99 101
104 85 102
106 105 101
108 86 9
110 109 24
112 111 12
114 110 13
116 113 115
120 116 119
122 117 118
124 121 123
126 107 124
128 127 123
130 108 13
132 131 24
134 133 16
136 132 17
138 135 137
142 138 141
144 139 140
146 143 145
148 129 146
150 149 145
152 18 29
154 153 24
156 155 21
158 154 20
160 157 159
164 161 163
166 160 162
168 165 167
170 151 168
172 171 167
174 38 173
176 39 172
178 175 177
180 59 29
182 180 63
184 183 65
186 66 81
188 187 83
190 185 189
192 84 103
194 193 105
196 190 195
198 106 125
200 199 127
202 196 201
204 128 147
206 205 149
208 202 207
210 150 169
212 211 171
214 208 213
216 178 214
218 184 188
220 219 191
222 61 2
224 223 181
226 225 183
228 2 4
230 229 7
232 227 231
234 220 233
236 226 230
238 235 237
240 7 8
242 241 11
244 238 243
246 239 242
248 191 194
250 249 197
252 247 251
254 245 253
256 11 12
258 257 15
260 197 200
262 261 203
264 259 263
266 254 265
268 258 262
270 267 269
272 15 16
274 273 19
276 203 206
278 277 209
280 275 279
282 271 281
284 274 278
286 283 285
288 19 20
290 289 23
292 209 212
294 293 215
296 291 295
298 287 297
300 290 294
302 299 301
304 23 25
306 305 27
308 303 306
310 216 308
312 302 307
314 312 217
316 311 315
318 179 215
320 318 309
322 316 321
i0 2 y1[1]
i1 2 y1[2]
i2 2 y1[3]
i3 2 y1[4]
i4 2 y1[5]
i5 2 y1[6]
i6 2 y1[7]
i7 2 y1[0]
i8 1 x1[7]
i9 1 x1[1]
i10 1 x1[0]
i11 1 x1[2]
i12 1 x1[3]
i13 1 x1[4]
i14 1 x1[5]
i15 1 x1[6]
o0 bv[0]
c
simplified
  <
    subtract
      1
      2 y1
    add
      1 x1
      abs
        2 y1
