words_hard_train/8377.qaiger.qdimacs
p cnf 161 436
a 37 70 16 48 81 26 59 31 0
e 1 2 3 4 5 6 7 8 9 10 11 12 13 14 15 17 18 19 20 21 22 23 24 25 27 28 29 30 32 33 34 35 36 38 39 40 41 42 43 44 45 46 47 49 50 51 52 53 54 55 56 57 58 60 61 62 63 64 65 66 67 68 69 71 72 73 74 75 76 77 78 79 80 82 83 84 85 86 87 88 89 90 91 92 93 94 95 96 97 98 99 100 101 102 103 104 105 106 107 108 109 110 111 112 113 114 115 116 117 118 119 120 121 122 123 124 125 126 127 128 129 130 131 132 133 134 135 136 137 138 139 140 141 142 143 144 145 146 147 148 149 150 151 152 153 154 155 156 157 158 159 160 161 0
1 2 3 0
-1 -3 0
-2 -3 0
-3 4 5 0
3 -5 0
-4 -5 0
-5 6 7 0
5 -7 0
-6 -7 0
-7 8 9 0
7 -9 0
-8 -9 0
-9 10 11 0
9 -11 0
-10 -11 0
-11 -12 13 0
11 -13 0
12 -13 0
-13 14 15 0
13 -15 0
-14 -15 0
-15 -16 17 0
15 -17 0
16 -17 0
15 16 18 0
-15 -18 0
-16 -18 0
17 18 19 0
-17 -19 0
-18 -19 0
-1 12 20 0
1 -20 0
-12 -20 0
-14 -1 21 0
14 -21 0
1 -21 0
14 1 22 0
-14 -22 0
-1 -22 0
22 -12 23 0
-22 -23 0
12 -23 0
21 -23 24 0
-21 -24 0
23 -24 0
20 24 25 0
-20 -25 0
-24 -25 0
-25 26 27 0
25 -27 0
-26 -27 0
25 -26 28 0
-25 -28 0
26 -28 0
27 28 29 0
-27 -29 0
-28 -29 0
-29 -14 30 0
29 -30 0
14 -30 0
-30 -31 32 0
30 -32 0
31 -32 0
32 28 33 0
-32 -33 0
-28 -33 0
23 -2 34 0
-23 -34 0
2 -34 0
-23 2 35 0
23 -35 0
-2 -35 0
34 35 36 0
-34 -36 0
-35 -36 0
-36 37 38 0
36 -38 0
-37 -38 0
36 -37 39 0
-36 -39 0
37 -39 0
38 39 40 0
-38 -40 0
-39 -40 0
33 -40 41 0
-33 -41 0
40 -41 0
41 39 42 0
-41 -42 0
-39 -42 0
-22 2 43 0
22 -43 0
-2 -43 0
43 -12 44 0
-43 -44 0
12 -44 0
44 4 45 0
-44 -45 0
-4 -45 0
-44 -4 46 0
44 -46 0
4 -46 0
45 46 47 0
-45 -47 0
-46 -47 0
47 48 49 0
-47 -49 0
-48 -49 0
-47 -48 50 0
47 -50 0
48 -50 0
49 50 51 0
-49 -51 0
-50 -51 0
42 -51 52 0
-42 -52 0
51 -52 0
52 50 53 0
-52 -53 0
-50 -53 0
-43 4 54 0
43 -54 0
-4 -54 0
54 -12 55 0
-54 -55 0
12 -55 0
55 -6 56 0
-55 -56 0
6 -56 0
-55 6 57 0
55 -57 0
-6 -57 0
56 57 58 0
-56 -58 0
-57 -58 0
-58 59 60 0
58 -60 0
-59 -60 0
58 -59 61 0
-58 -61 0
59 -61 0
60 61 62 0
-60 -62 0
-61 -62 0
53 -62 63 0
-53 -63 0
62 -63 0
63 61 64 0
-63 -64 0
-61 -64 0
-54 6 65 0
54 -65 0
-6 -65 0
65 -12 66 0
-65 -66 0
12 -66 0
66 -8 67 0
-66 -67 0
8 -67 0
-66 8 68 0
66 -68 0
-8 -68 0
67 68 69 0
-67 -69 0
-68 -69 0
-69 70 71 0
69 -71 0
-70 -71 0
69 -70 72 0
-69 -72 0
70 -72 0
71 72 73 0
-71 -73 0
-72 -73 0
64 -73 74 0
-64 -74 0
73 -74 0
74 72 75 0
-74 -75 0
-72 -75 0
-9 14 76 0
9 -76 0
-14 -76 0
76 -12 77 0
-76 -77 0
12 -77 0
77 10 78 0
-77 -78 0
-10 -78 0
-77 -10 79 0
77 -79 0
10 -79 0
78 79 80 0
-78 -80 0
-79 -80 0
80 81 82 0
-80 -82 0
-81 -82 0
-80 -81 83 0
80 -83 0
81 -83 0
82 83 84 0
-82 -84 0
-83 -84 0
75 -84 85 0
-75 -85 0
84 -85 0
85 83 86 0
-85 -86 0
-83 -86 0
-19 86 87 0
19 -87 0
-86 -87 0
19 -86 88 0
-19 -88 0
86 -88 0
87 88 89 0
-87 -89 0
-88 -89 0
29 14 90 0
-29 -90 0
-14 -90 0
-90 31 91 0
90 -91 0
-31 -91 0
91 32 92 0
-91 -92 0
-32 -92 0
-33 40 93 0
33 -93 0
-40 -93 0
93 41 94 0
-93 -94 0
-41 -94 0
92 94 95 0
-92 -95 0
-94 -95 0
-42 51 96 0
42 -96 0
-51 -96 0
96 52 97 0
-96 -97 0
-52 -97 0
-95 97 98 0
95 -98 0
-97 -98 0
-53 62 99 0
53 -99 0
-62 -99 0
99 63 100 0
-99 -100 0
-63 -100 0
-98 100 101 0
98 -101 0
-100 -101 0
-64 73 102 0
64 -102 0
-73 -102 0
102 74 103 0
-102 -103 0
-74 -103 0
-101 103 104 0
101 -104 0
-103 -104 0
-75 84 105 0
75 -105 0
-84 -105 0
105 85 106 0
-105 -106 0
-85 -106 0
-104 106 107 0
104 -107 0
-106 -107 0
-89 -107 108 0
89 -108 0
107 -108 0
-92 -94 109 0
92 -109 0
94 -109 0
109 95 110 0
-109 -110 0
-95 -110 0
30 -1 111 0
-30 -111 0
1 -111 0
111 90 112 0
-111 -112 0
-90 -112 0
112 91 113 0
-112 -113 0
-91 -113 0
-1 -2 114 0
1 -114 0
2 -114 0
114 3 115 0
-114 -115 0
-3 -115 0
113 115 116 0
-113 -116 0
-115 -116 0
-110 116 117 0
110 -117 0
-116 -117 0
-113 -115 118 0
113 -118 0
115 -118 0
117 118 119 0
-117 -119 0
-118 -119 0
3 -4 120 0
-3 -120 0
4 -120 0
120 5 121 0
-120 -121 0
-5 -121 0
-119 121 122 0
119 -122 0
-121 -122 0
119 -121 123 0
-119 -123 0
121 -123 0
95 -97 124 0
-95 -124 0
97 -124 0
124 98 125 0
-124 -125 0
-98 -125 0
123 125 126 0
-123 -126 0
-125 -126 0
122 126 127 0
-122 -127 0
-126 -127 0
5 -6 128 0
-5 -128 0
6 -128 0
128 7 129 0
-128 -129 0
-7 -129 0
98 -100 130 0
-98 -130 0
100 -130 0
130 101 131 0
-130 -131 0
-101 -131 0
129 131 132 0
-129 -132 0
-131 -132 0
-127 132 133 0
127 -133 0
-132 -133 0
-129 -131 134 0
129 -134 0
131 -134 0
133 134 135 0
-133 -135 0
-134 -135 0
7 -8 136 0
-7 -136 0
8 -136 0
136 9 137 0
-136 -137 0
-9 -137 0
101 -103 138 0
-101 -138 0
103 -138 0
138 104 139 0
-138 -139 0
-104 -139 0
137 139 140 0
-137 -140 0
-139 -140 0
135 140 141 0
-135 -141 0
-140 -141 0
-137 -139 142 0
137 -142 0
139 -142 0
141 142 143 0
-141 -143 0
-142 -143 0
9 -10 144 0
-9 -144 0
10 -144 0
144 11 145 0
-144 -145 0
-11 -145 0
104 -106 146 0
-104 -146 0
106 -146 0
146 107 147 0
-146 -147 0
-107 -147 0
145 147 148 0
-145 -148 0
-147 -148 0
143 148 149 0
-143 -149 0
-148 -149 0
-145 -147 150 0
145 -150 0
147 -150 0
149 150 151 0
-149 -151 0
-150 -151 0
11 12 152 0
-11 -152 0
-12 -152 0
152 13 153 0
-152 -153 0
-13 -153 0
151 -153 154 0
-151 -154 0
153 -154 0
-108 -154 155 0
108 -155 0
154 -155 0
-151 153 156 0
151 -156 0
-153 -156 0
-156 108 157 0
156 -157 0
-108 -157 0
155 157 158 0
-155 -158 0
-157 -158 0
89 107 159 0
-89 -159 0
-107 -159 0
-159 154 160 0
159 -160 0
-154 -160 0
-158 160 161 0
158 -161 0
-160 -161 0
-161 0
